p cnf 7230 16
-4676 -4677 0
4674 4675 0
3992 -4675 0
-3992 -4674 0
4672 4673 0
3990 -4673 0
-3990 -4672 0
4670 4671 0
3988 -4671 0
-3988 -4670 0
4668 4669 0
3984 -4669 0
-3984 -4668 0
-3996 4677 0
4666 4667 0
3996 -4677 0
